r = [
0,40,6,18,37,35,15,27,38,40,36,10,14,19,37,21,22,18,26,4,18,34,8,5,38,37,0
];
p = [
0,1,12,13,26,14,2,13,26,17,6,28,30,22,21,1,9,17,24,12,23,22,27,15,9,10,0
];
e = [
0,19,8,10,15,11,9,1,20,4,13,3,6,4,3,15,13,7,17,13,14,1,18,18,4,8,0
];
d = [
0,225,271,322,534,227,336,451,387,254,319,237,212,347,302,411,309,406,433,543,337,395,472,269,324,477,557
];
d_bar = [
0,226,282,334,557,240,338,463,410,269,324,262,239,367,321,412,317,421,455,554,358,415,496,283,332,486,557
];
w = [
0,19,0.727272727,0.833333333,0.652173913,0.846153846,4.5,0.083333333,0.869565217,0.266666667,2.6,0.12,0.222222222,0.2,0.157894737,15,1.625,0.466666667,0.772727273,1.181818182,0.666666667,0.05,0.75,1.285714286,0.5,0.888888889,0
];
